NAME : instances/clustered-mixed-tsp/instance-95.tsp
COMMENT : No Comment
TYPE : TSP
DIMENSION: 40
EDGE_WEIGHT_TYPE : EUC_2D
NODE_COORD_SECTION
1 354 476 
2 526 926 
3 367 981 
4 290 -148 
5 386 396 
6 510 350 
7 718 494 
8 702 798 
9 286 286 
10 271 773 
11 264 451 
12 894 398 
13 926 814 
14 814 798 
15 543 645 
16 287 1029 
17 422 227 
18 280 963 
19 718 590 
20 415 1077 
21 194 380 
22 718 542 
23 606 462 
24 351 933 
25 447 517 
26 111 1045 
27 95 805 
28 -26 195 
29 344 867 
30 -8 643 
31 511 693 
32 438 259 
33 527 917 
34 -33 1157 
35 479 773 
36 127 741 
37 584 563 
38 456 691 
39 318 894 
40 495 901 
EOF
